n = 10; 

m= 10; 

											
22	16	21	20	7	8	2	19	21	21
35	38	24	23	17	26	30	11	2	24
61	16	26	81	56	14	34	33	14	26
30	21	14	18	19	15	29	31	34	14
60	16	4	32	21	29	11	33	35	4
32	51	5	33	38	29	19	3	36	5
20	49	12	16	34	35	2	30	3	12
57	12	15	36	10	16	11	35	39	15
19	41	19	35	20	2	16	11	10	19
61	16	26	81	56	14	34	33	14	26

	 












 
 


 

 
